100 8
745 242
28 767
819 837
637 630
663 282
506 155
558 751
402 246
687 849
594 570
522 725
421 563
346 168
486 532
829 340
266 569
595 822
305 573
196 632
161 214
88 695
265 589
785 835
382 233
442 532
813 128
142 635
584 683
213 194
415 355
641 667
608 917
215 59
222 132
220 276
819 158
664 844
168 192
312 117
989 143
751 175
532 725
566 893
208 599
771 590
733 805
24 750
903 286
460 782
946 378
194 58
844 420
988 34
811 274
696 905
364 556
352 598
730 896
53 780
658 582
588 914
213 184
341 111
763 653
487 292
316 164
880 96
842 361
955 304
965 172
218 596
530 327
842 406
449 235
769 154
331 575
133 665
728 214
577 858
834 113
186 302
583 765
147 199
279 721
620 579
648 900
161 182
499 627
617 914
653 949
789 118
123 299
399 728
176 639
527 438
480 88
452 596
88 658
317 163
375 360
